92 88 12 47 15 9 10 74 
14 11 17 13 57 23 25 24 
95 63 76 18 19 22 49 48 66 80 
69 98 82 87 86 99 53 56 91 
79 7 2 46 45 3 1 70 100 68 
39 40 41 72 67 62 54 93 
65 83 78 16 97 58 
64 21 51 84 85 96 55 
5 6 73 43 36 
31 29 71 38 42 35 
52 81 61 44 4 
77 50 32 30 33 
27 28 94 89 
8 90 37 
59 75 20 60 
34 26 

